
n_res = 8;
rcap = [26, 27, 25, 26, 791, 742, 782, 771];
rtype = [1, 1, 1, 1, 2, 2, 2, 2];
n_tasks = 50;
modes =  [{1, 2, 3}, {4, 5, 6}, {7, 8, 9}, {10, 11, 12}, {13, 14, 15}, {16, 17, 18}, {19, 20, 21}, {22, 23, 24}, {25, 26, 27}, {28, 29, 30}, {31, 32, 33}, {34, 35, 36}, {37, 38, 39}, {40, 41, 42}, {43, 44, 45}, {46, 47, 48}, {49, 50, 51}, {52, 53, 54}, {55, 56, 57}, {58, 59, 60}, {61, 62, 63}, {64, 65, 66}, {67, 68, 69}, {70, 71, 72}, {73, 74, 75}, {76, 77, 78}, {79, 80, 81}, {82, 83, 84}, {85, 86, 87}, {88, 89, 90}, {91, 92, 93}, {94, 95, 96}, {97, 98, 99}, {100, 101, 102}, {103, 104, 105}, {106, 107, 108}, {109, 110, 111}, {112, 113, 114}, {115, 116, 117}, {118, 119, 120}, {121, 122, 123}, {124, 125, 126}, {127, 128, 129}, {130, 131, 132}, {133, 134, 135}, {136, 137, 138}, {139, 140, 141}, {142, 143, 144}, {145, 146, 147}, {148, 149, 150}];
succ =  [{48, 22, 18, 15, 4}, {50, 46, 44, 30, 25, 18, 17, 16, 15, 13, 12}, {47, 18, 4}, {46, 44, 39, 30, 29, 21, 19, 17, 11}, {49, 48, 46, 40, 35, 26, 25, 21, 19, 18, 17, 13}, {50, 48, 47, 45, 44, 42, 41, 35, 19, 18, 17}, {45, 43, 42, 40, 36, 29, 22, 9}, {48, 45, 44, 42, 41, 40, 35, 29, 27, 25, 17}, {46, 44, 35, 26, 25, 17}, {43, 40, 39, 38, 37, 36, 35, 34, 32, 26}, {45, 42, 41, 40, 38, 36, 35, 26, 25}, {49, 39, 38, 37, 32, 27, 26}, {47, 43, 41, 37, 33, 32, 31}, {45, 41, 39, 35, 34, 33, 32}, {40, 39, 36, 34, 32, 27}, {42, 40, 36, 35, 34, 32}, {38, 37, 33, 28}, {39, 37, 36, 31}, {34, 32, 27}, {33, 31, 25}, {43, 41, 31}, {34, 32, 31}, {39, 36, 33}, {36, 35, 33}, {34}, {31}, {33}, {32}, {31}, {31}, {}, {}, {}, {}, {}, {}, {}, {}, {}, {}, {}, {}, {}, {}, {}, {}, {}, {}, {}, {}];
n_opt = 150;
dur = [4, 11, 27, 16, 28, 29, 4, 15, 17, 15, 16, 19, 17, 25, 30, 6, 23, 24, 19, 24, 29, 3, 9, 30, 19, 21, 26, 8, 20, 24, 6, 18, 21, 8, 22, 28, 11, 12, 21, 2, 19, 24, 6, 27, 28, 5, 20, 23, 11, 14, 29, 10, 27, 28, 12, 17, 27, 4, 13, 21, 10, 19, 30, 11, 13, 26, 8, 23, 27, 4, 14, 26, 4, 7, 21, 8, 14, 16, 1, 2, 21, 6, 9, 15, 5, 10, 12, 15, 16, 19, 2, 11, 18, 1, 17, 21, 1, 12, 26, 1, 8, 13, 4, 18, 25, 3, 5, 11, 15, 26, 29, 4, 14, 27, 18, 19, 22, 1, 4, 17, 6, 8, 20, 1, 10, 13, 10, 14, 15, 13, 21, 25, 2, 3, 26, 3, 18, 25, 3, 13, 21, 15, 17, 26, 15, 19, 20, 1, 21, 22];
rreq = [|4, 3, 1, 4, 2, 2, 1, 1, 1, 4, 4, 3, 4, 4, 2, 3, 3, 3, 2, 2, 2, 3, 3, 1, 3, 3, 2, 4, 4, 4, 2, 2, 2, 5, 4, 3, 3, 3, 3, 3, 2, 1, 4, 3, 2, 2, 2, 1, 1, 1, 1, 3, 2, 2, 4, 4, 4, 2, 1, 1, 4, 3, 1, 5, 5, 5, 5, 4, 3, 3, 2, 2, 3, 2, 1, 3, 3, 3, 4, 3, 3, 2, 2, 2, 4, 3, 1, 4, 4, 2, 3, 2, 2, 2, 1, 1, 5, 3, 3, 4, 4, 3, 3, 2, 2, 3, 3, 3, 5, 4, 3, 2, 2, 2, 4, 4, 4, 3, 3, 3, 4, 2, 2, 4, 2, 1, 4, 4, 2, 2, 1, 1, 4, 2, 2, 4, 2, 2, 4, 3, 3, 4, 2, 2, 3, 2, 1, 4, 3, 3
 |2, 1, 1, 4, 4, 2, 1, 1, 1, 4, 2, 2, 4, 3, 3, 3, 2, 1, 3, 3, 3, 4, 2, 1, 4, 2, 2, 3, 2, 1, 5, 5, 5, 5, 3, 3, 5, 4, 3, 4, 3, 3, 2, 2, 2, 4, 4, 3, 4, 3, 3, 4, 2, 2, 3, 2, 2, 3, 3, 2, 4, 4, 4, 2, 1, 1, 3, 2, 2, 2, 1, 1, 3, 3, 3, 4, 3, 2, 3, 3, 3, 5, 3, 2, 4, 2, 2, 3, 3, 3, 3, 2, 2, 3, 2, 2, 3, 3, 1, 4, 4, 4, 5, 5, 5, 1, 1, 1, 2, 2, 2, 2, 2, 2, 5, 3, 3, 4, 3, 2, 5, 5, 5, 2, 2, 1, 1, 1, 1, 2, 2, 2, 4, 4, 4, 1, 1, 1, 4, 3, 3, 4, 4, 3, 3, 3, 3, 5, 4, 3
 |4, 4, 3, 4, 3, 3, 5, 5, 5, 3, 3, 3, 3, 2, 2, 4, 4, 2, 3, 2, 2, 5, 4, 4, 2, 2, 1, 3, 3, 3, 3, 2, 2, 3, 3, 2, 2, 1, 1, 3, 3, 3, 5, 3, 2, 5, 2, 2, 2, 1, 1, 5, 4, 4, 3, 3, 2, 3, 3, 3, 4, 2, 1, 4, 4, 4, 1, 1, 1, 1, 1, 1, 2, 1, 1, 5, 4, 3, 5, 4, 4, 3, 3, 3, 3, 2, 2, 3, 2, 1, 5, 4, 3, 3, 3, 1, 4, 4, 4, 4, 3, 1, 2, 2, 2, 3, 3, 2, 4, 3, 3, 4, 2, 2, 4, 3, 2, 5, 4, 3, 2, 2, 2, 4, 3, 2, 1, 1, 1, 4, 3, 1, 5, 3, 1, 4, 2, 1, 3, 2, 1, 4, 3, 3, 4, 3, 2, 1, 1, 1
 |2, 2, 1, 5, 4, 4, 5, 4, 2, 4, 3, 3, 3, 2, 2, 5, 4, 3, 3, 2, 2, 5, 4, 2, 5, 4, 3, 4, 3, 3, 4, 3, 3, 4, 2, 2, 2, 2, 2, 5, 3, 3, 1, 1, 1, 5, 4, 3, 3, 2, 2, 5, 4, 4, 2, 1, 1, 4, 2, 2, 3, 2, 2, 5, 4, 3, 5, 3, 2, 1, 1, 1, 4, 4, 3, 3, 2, 2, 1, 1, 1, 5, 3, 3, 3, 2, 1, 4, 4, 4, 3, 3, 3, 5, 4, 3, 4, 3, 2, 4, 3, 3, 5, 5, 5, 3, 1, 1, 3, 2, 2, 4, 3, 1, 5, 3, 2, 5, 3, 3, 3, 3, 2, 2, 1, 1, 1, 1, 1, 2, 2, 2, 3, 2, 2, 4, 3, 2, 2, 2, 2, 2, 2, 2, 4, 3, 1, 3, 2, 2
 |8, 7, 4, 24, 20, 20, 18, 13, 10, 19, 9, 3, 20, 20, 14, 11, 9, 7, 21, 13, 12, 27, 18, 9, 24, 14, 14, 25, 20, 18, 14, 11, 10, 17, 13, 13, 25, 24, 24, 22, 10, 5, 25, 16, 11, 23, 20, 18, 12, 9, 7, 10, 6, 5, 20, 16, 16, 26, 20, 16, 5, 5, 3, 14, 14, 11, 16, 16, 15, 5, 4, 1, 17, 15, 10, 29, 27, 26, 13, 11, 6, 12, 10, 8, 28, 22, 21, 6, 3, 1, 11, 11, 10, 23, 15, 5, 26, 21, 19, 16, 14, 14, 22, 21, 20, 17, 17, 17, 24, 23, 15, 28, 27, 27, 27, 21, 16, 24, 15, 10, 29, 24, 23, 8, 6, 5, 23, 19, 16, 21, 11, 3, 18, 12, 6, 23, 15, 14, 20, 16, 14, 29, 20, 19, 26, 23, 15, 19, 14, 7
 |16, 14, 14, 13, 13, 12, 13, 11, 8, 11, 10, 9, 18, 13, 4, 25, 17, 5, 21, 16, 12, 15, 8, 8, 9, 6, 4, 24, 19, 18, 27, 23, 21, 25, 15, 11, 7, 5, 3, 7, 6, 4, 19, 12, 10, 9, 3, 2, 24, 21, 18, 24, 23, 23, 19, 19, 10, 15, 15, 14, 16, 14, 14, 2, 2, 2, 17, 17, 17, 16, 14, 14, 28, 27, 26, 24, 22, 17, 21, 19, 19, 28, 22, 22, 26, 24, 24, 27, 16, 13, 22, 20, 15, 12, 9, 5, 19, 18, 16, 10, 9, 9, 17, 17, 17, 26, 21, 13, 17, 15, 10, 26, 21, 21, 28, 24, 16, 9, 4, 2, 18, 18, 18, 5, 2, 1, 14, 7, 5, 9, 6, 5, 20, 19, 11, 23, 22, 19, 14, 14, 14, 11, 10, 8, 17, 14, 12, 21, 13, 5
 |4, 4, 2, 24, 15, 5, 15, 13, 12, 29, 27, 26, 14, 9, 1, 22, 15, 5, 12, 11, 9, 4, 4, 4, 24, 21, 20, 25, 14, 10, 26, 21, 17, 25, 19, 15, 11, 9, 7, 18, 16, 11, 22, 18, 8, 26, 12, 9, 27, 26, 24, 25, 16, 15, 15, 15, 14, 26, 22, 17, 21, 11, 11, 18, 14, 6, 11, 9, 5, 29, 18, 15, 16, 10, 2, 15, 14, 10, 22, 15, 8, 20, 17, 17, 23, 23, 15, 24, 23, 23, 20, 13, 9, 5, 3, 2, 27, 18, 8, 13, 9, 7, 22, 18, 11, 25, 18, 16, 15, 10, 10, 23, 22, 21, 24, 21, 16, 27, 20, 14, 27, 24, 22, 29, 21, 14, 16, 10, 7, 21, 19, 16, 21, 18, 13, 21, 13, 8, 11, 10, 10, 19, 17, 13, 23, 20, 16, 5, 3, 2
 |14, 12, 10, 24, 24, 21, 19, 18, 14, 20, 18, 17, 15, 7, 3, 24, 16, 12, 21, 16, 13, 14, 11, 5, 18, 14, 11, 28, 19, 12, 15, 13, 8, 22, 20, 20, 10, 8, 8, 25, 19, 14, 19, 16, 16, 26, 17, 15, 16, 11, 5, 26, 20, 15, 22, 15, 14, 14, 12, 9, 15, 11, 10, 14, 11, 11, 17, 8, 5, 20, 18, 12, 20, 15, 11, 7, 6, 6, 10, 8, 4, 22, 17, 16, 23, 10, 5, 17, 15, 11, 17, 11, 9, 23, 20, 17, 24, 24, 19, 24, 23, 19, 19, 17, 14, 24, 21, 18, 15, 13, 12, 14, 11, 7, 16, 9, 3, 19, 17, 5, 28, 26, 25, 19, 17, 17, 18, 18, 18, 11, 10, 10, 13, 8, 2, 23, 22, 20, 8, 7, 7, 23, 19, 16, 24, 17, 5, 24, 23, 23|];